5
199
589
40	24
1	5	7	11	7	9	6	5	14	4	5	2	
2	1	7	10	
3	4	4	12	5	5	4	4	4	4	
4	2	6	6	5	4	
5	3	6	10	8	5	24	4	
6	3	4	9	8	7	7	3	
7	5	8	9	4	6	18	3	8	3	5	2	
8	1	11	3	
9	1	8	3	
10	5	7	10	18	3	10	3	9	3	13	2	
11	5	6	8	7	6	8	4	6	4	5	4	
12	4	11	5	12	4	6	4	17	3	
13	5	8	10	17	4	15	4	10	3	7	3	
14	3	8	11	11	5	9	4	
15	3	7	5	12	3	8	3	
16	1	9	2	
17	1	7	4	
18	4	5	8	8	6	14	3	10	2	
19	1	7	4	
20	5	5	10	8	6	7	3	4	3	7	2	
21	3	5	7	7	4	11	3	
22	3	21	3	6	3	5	2	
23	5	7	6	10	3	8	3	5	3	7	2	
24	4	8	9	5	4	10	3	18	2	
25	3	5	8	8	6	20	4	
26	5	4	6	11	5	8	5	4	4	9	3	
27	2	4	6	8	4	
28	5	4	6	22	3	11	3	11	3	5	3	
29	5	7	8	7	6	8	5	12	3	12	3	
30	3	5	5	18	3	24	2	
31	5	7	8	5	8	5	6	9	5	17	3	
32	2	7	10	8	5	
33	3	7	4	5	4	6	3	
34	5	6	5	11	4	7	4	12	3	12	3	
35	4	8	11	17	4	8	4	6	4	
36	2	15	4	13	4	
37	4	10	6	6	6	5	5	7	4	
38	2	5	6	5	2	
39	2	5	7	8	6	
40	1	4	5	
41	3	6	5	9	3	4	2	
42	4	5	9	7	7	6	6	7	3	
43	3	6	9	12	5	4	3	
44	3	7	12	5	5	11	3	
45	3	6	11	10	3	7	2	
46	2	18	3	5	3	
47	1	15	3	
48	2	7	11	5	3	
49	4	6	10	16	4	7	4	7	2	
50	5	9	4	22	3	9	3	8	2	5	2	
51	4	8	8	5	5	7	2	5	2	
52	5	7	4	6	4	10	3	5	3	16	2	
53	1	11	2	
54	2	6	5	16	4	
55	4	14	3	6	3	5	3	11	2	
56	4	6	11	7	5	5	5	7	2	
57	4	5	9	18	4	6	4	8	3	
58	4	7	7	11	6	7	4	17	3	
59	4	21	4	5	4	15	3	5	3	
60	1	6	6	
61	4	8	8	6	3	4	3	15	2	
62	3	4	6	23	2	20	2	
63	4	6	9	14	4	19	2	15	2	
64	5	7	11	8	9	5	8	8	5	6	3	
65	3	6	7	10	3	8	2	
66	1	6	3	
67	2	10	3	9	3	
68	2	21	4	17	3	
69	5	5	5	5	3	10	2	7	2	7	2	
70	2	24	3	4	3	
71	1	9	3	
72	4	8	4	17	3	12	3	6	3	
73	1	10	3	
74	1	5	4	
75	2	9	4	5	4	
76	4	7	11	7	7	5	6	8	4	
77	2	11	3	11	3	
78	4	9	5	7	4	4	4	11	2	
79	5	5	11	5	5	9	4	23	3	20	3	
80	4	7	9	7	7	4	6	11	3	
81	1	7	2	
82	4	6	11	7	4	22	3	12	2	
83	2	6	5	7	4	
84	5	10	4	10	4	14	3	6	3	4	2	
85	5	11	6	9	5	7	5	6	5	17	3	
86	2	10	5	24	3	
87	3	7	11	13	4	16	3	
88	3	7	8	13	3	6	2	
89	3	8	5	9	4	15	3	
90	4	4	7	6	5	4	5	10	2	
91	1	6	11	
92	3	10	5	10	5	15	4	
93	2	22	4	6	4	
94	1	18	2	
95	1	7	6	
96	4	12	4	5	4	4	4	5	3	
97	4	4	9	4	6	7	5	6	4	
98	3	8	11	7	9	22	4	
99	1	19	4	
100	5	7	10	7	9	17	4	4	4	5	3	
101	1	4	3	
102	2	5	4	4	3	
103	3	6	9	5	3	12	2	
104	5	4	10	11	5	9	5	8	4	4	4	
105	5	7	10	12	6	11	3	5	3	22	2	
106	5	4	11	7	7	6	6	11	3	4	3	
107	4	7	11	6	7	22	3	9	3	
108	2	18	4	7	4	
109	2	6	4	10	3	
110	3	5	10	4	7	6	4	
111	1	9	5	
112	2	22	4	6	4	
113	2	7	5	9	3	
114	1	4	2	
115	1	10	3	
116	2	10	3	9	3	
117	2	8	6	18	4	
118	3	5	11	6	5	21	4	
119	5	8	11	9	5	10	4	19	3	11	3	
120	5	6	12	7	3	7	3	19	2	5	2	
121	2	6	5	6	5	
122	5	8	7	5	5	12	4	8	3	5	2	
123	1	4	3	
124	1	12	3	
125	2	5	4	14	3	
126	4	5	5	8	4	6	4	20	2	
127	1	7	5	
128	1	12	4	
129	1	23	2	
130	2	8	4	12	2	
131	5	8	10	11	4	10	4	6	4	17	3	
132	5	8	6	4	6	10	5	4	5	10	4	
133	2	10	4	14	2	
134	2	5	11	7	6	
135	4	6	12	6	9	10	5	8	4	
136	5	9	6	5	6	23	4	7	4	22	2	
137	2	20	4	9	2	
138	2	5	5	9	4	
139	4	7	6	15	4	21	2	10	2	
140	4	6	6	9	5	7	4	9	3	
141	5	6	10	7	9	7	6	18	4	8	3	
142	1	4	3	
143	4	6	10	19	3	6	3	23	2	
144	4	10	5	9	5	11	3	7	2	
145	2	6	9	19	3	
146	2	7	7	10	3	
147	2	4	11	20	3	
148	1	8	3	
149	5	9	4	8	4	5	3	17	2	4	2	
150	2	10	4	8	2	
151	3	21	4	7	3	6	3	
152	4	8	7	13	3	9	3	8	2	
153	2	7	10	6	8	
154	5	7	9	11	4	14	3	8	3	8	2	
155	5	4	11	9	6	14	4	9	3	5	2	
156	1	5	3	
157	1	19	2	
158	2	6	3	22	2	
159	2	4	8	9	4	
160	1	11	5	
161	3	5	9	5	6	8	4	
162	2	5	11	5	3	
163	3	6	11	9	4	6	4	
164	4	6	5	21	4	8	4	6	4	
165	4	11	4	19	3	6	3	16	2	
166	1	7	4	
167	3	22	3	5	2	4	2	
168	4	7	8	10	4	12	2	11	2	
169	4	6	5	16	4	9	3	5	3	
170	4	11	5	12	4	7	3	16	2	
171	5	7	5	6	5	10	4	21	3	24	2	
172	1	6	8	
173	4	7	5	13	4	5	4	7	3	
174	3	10	5	8	4	14	3	
175	2	5	6	9	4	
176	3	5	12	7	7	7	5	
177	3	7	11	8	6	22	2	
178	2	6	8	13	4	
179	2	7	4	7	3	
180	1	7	5	
181	4	7	11	10	4	20	3	11	3	
182	5	4	11	8	4	8	4	19	2	5	2	
183	4	11	5	8	4	12	3	6	3	
184	1	22	3	
185	4	16	4	10	4	10	4	5	4	
186	4	6	7	4	4	16	3	8	3	
187	2	20	4	5	3	
188	3	7	9	8	7	11	3	
189	4	7	9	6	9	8	5	6	2	
190	3	15	3	13	2	9	2	
191	2	6	3	5	3	
192	4	8	6	9	3	8	3	4	3	
193	3	5	12	12	4	18	3	
194	1	5	3	
195	4	6	5	16	3	11	3	7	2	
196	4	10	6	20	4	7	3	6	3	
197	2	10	5	18	4	
198	1	7	2	
199	2	11	5	8	4	
